(set-option :produce-models true)
(set-logic QF_LRA)
(set-info :notes | Strip-packing problem.|)
(declare-fun x0 () Real)
(declare-fun y0 () Real)
(declare-fun x1 () Real)
(declare-fun y1 () Real)
(declare-fun x2 () Real)
(declare-fun y2 () Real)
(declare-fun x3 () Real)
(declare-fun y3 () Real)
(declare-fun x4 () Real)
(declare-fun y4 () Real)
(declare-fun x5 () Real)
(declare-fun y5 () Real)
(declare-fun x6 () Real)
(declare-fun y6 () Real)
(declare-fun x7 () Real)
(declare-fun y7 () Real)
(declare-fun x8 () Real)
(declare-fun y8 () Real)
(declare-fun x9 () Real)
(declare-fun y9 () Real)
(declare-fun x10 () Real)
(declare-fun y10 () Real)
(declare-fun x11 () Real)
(declare-fun y11 () Real)
(declare-fun z () Real)
(declare-fun c () Real)
(assert (and (= c z) (and (>= x0 0) 
(and (>= y0 0) 
(and (>= x1 0) 
(and (>= y1 0) 
(and (>= x2 0) 
(and (>= y2 0) 
(and (>= x3 0) 
(and (>= y3 0) 
(and (>= x4 0) 
(and (>= y4 0) 
(and (>= x5 0) 
(and (>= y5 0) 
(and (>= x6 0) 
(and (>= y6 0) 
(and (>= x7 0) 
(and (>= y7 0) 
(and (>= x8 0) 
(and (>= y8 0) 
(and (>= x9 0) 
(and (>= y9 0) 
(and (>= x10 0) 
(and (>= y10 0) 
(and (>= x11 0) 
(and (>= y11 0) 
(and (>= z 0) 
(and (>= c 0) 
(and (<= (+ x0 0.5038994335) z) 
(and (<= 0.9474019576 y0) 
(and (<= y0 1.0) 
(and (<= x0 (- 2.9520361339 0.5038994335)) 
(and (>= x0 0) 
(and (<= (+ x1 0.0911714768) z) 
(and (<= 0.8134874405 y1) 
(and (<= y1 1.0) 
(and (<= x1 (- 2.9520361339 0.0911714768)) 
(and (>= x1 0) 
(and (<= (+ x2 0.1829961401) z) 
(and (<= 0.7227091456 y2) 
(and (<= y2 1.0) 
(and (<= x2 (- 2.9520361339 0.1829961401)) 
(and (>= x2 0) 
(and (<= (+ x3 0.6987055435) z) 
(and (<= 0.6907405815 y3) 
(and (<= y3 1.0) 
(and (<= x3 (- 2.9520361339 0.6987055435)) 
(and (>= x3 0) 
(and (<= (+ x4 0.4717337751) z) 
(and (<= 0.554745903 y4) 
(and (<= y4 1.0) 
(and (<= x4 (- 2.9520361339 0.4717337751)) 
(and (>= x4 0) 
(and (<= (+ x5 0.3482728906) z) 
(and (<= 0.3828827221 y5) 
(and (<= y5 1.0) 
(and (<= x5 (- 2.9520361339 0.3482728906)) 
(and (>= x5 0) 
(and (<= (+ x6 0.4296715769) z) 
(and (<= 0.3677670044 y6) 
(and (<= y6 1.0) 
(and (<= x6 (- 2.9520361339 0.4296715769)) 
(and (>= x6 0) 
(and (<= (+ x7 0.0564388434) z) 
(and (<= 0.3643801729 y7) 
(and (<= y7 1.0) 
(and (<= x7 (- 2.9520361339 0.0564388434)) 
(and (>= x7 0) 
(and (<= (+ x8 0.3924183036) z) 
(and (<= 0.2641453916 y8) 
(and (<= y8 1.0) 
(and (<= x8 (- 2.9520361339 0.3924183036)) 
(and (>= x8 0) 
(and (<= (+ x9 0.573858188) z) 
(and (<= 0.1534121314 y9) 
(and (<= y9 1.0) 
(and (<= x9 (- 2.9520361339 0.573858188)) 
(and (>= x9 0) 
(and (<= (+ x10 0.348140032) z) 
(and (<= 0.1091890444 y10) 
(and (<= y10 1.0) 
(and (<= x10 (- 2.9520361339 0.348140032)) 
(and (>= x10 0) 
(and (<= (+ x11 0.4966061613) z) 
(and (<= 0.0338020348 y11) 
(and (<= y11 1.0) 
(and (<= x11 (- 2.9520361339 0.4966061613)) 
(and (>= x11 0) 
(and (<= c 2.9520361339) 
(and (or (<= (+ x0 0.5038994335) x1) (or (<= (+ x1 0.0911714768) x0) (or (>= (- y0 0.9474019576) y1) (or (>= (- y1 0.8134874405) y0))))) 
(and (or (<= (+ x0 0.5038994335) x2) (or (<= (+ x2 0.1829961401) x0) (or (>= (- y0 0.9474019576) y2) (or (>= (- y2 0.7227091456) y0))))) 
(and (or (<= (+ x0 0.5038994335) x3) (or (<= (+ x3 0.6987055435) x0) (or (>= (- y0 0.9474019576) y3) (or (>= (- y3 0.6907405815) y0))))) 
(and (or (<= (+ x0 0.5038994335) x4) (or (<= (+ x4 0.4717337751) x0) (or (>= (- y0 0.9474019576) y4) (or (>= (- y4 0.554745903) y0))))) 
(and (or (<= (+ x0 0.5038994335) x5) (or (<= (+ x5 0.3482728906) x0) (or (>= (- y0 0.9474019576) y5) (or (>= (- y5 0.3828827221) y0))))) 
(and (or (<= (+ x0 0.5038994335) x6) (or (<= (+ x6 0.4296715769) x0) (or (>= (- y0 0.9474019576) y6) (or (>= (- y6 0.3677670044) y0))))) 
(and (or (<= (+ x0 0.5038994335) x7) (or (<= (+ x7 0.0564388434) x0) (or (>= (- y0 0.9474019576) y7) (or (>= (- y7 0.3643801729) y0))))) 
(and (or (<= (+ x0 0.5038994335) x8) (or (<= (+ x8 0.3924183036) x0) (or (>= (- y0 0.9474019576) y8) (or (>= (- y8 0.2641453916) y0))))) 
(and (or (<= (+ x0 0.5038994335) x9) (or (<= (+ x9 0.573858188) x0) (or (>= (- y0 0.9474019576) y9) (or (>= (- y9 0.1534121314) y0))))) 
(and (or (<= (+ x0 0.5038994335) x10) (or (<= (+ x10 0.348140032) x0) (or (>= (- y0 0.9474019576) y10) (or (>= (- y10 0.1091890444) y0))))) 
(and (or (<= (+ x0 0.5038994335) x11) (or (<= (+ x11 0.4966061613) x0) (or (>= (- y0 0.9474019576) y11) (or (>= (- y11 0.0338020348) y0))))) 
(and (or (<= (+ x1 0.0911714768) x2) (or (<= (+ x2 0.1829961401) x1) (or (>= (- y1 0.8134874405) y2) (or (>= (- y2 0.7227091456) y1))))) 
(and (or (<= (+ x1 0.0911714768) x3) (or (<= (+ x3 0.6987055435) x1) (or (>= (- y1 0.8134874405) y3) (or (>= (- y3 0.6907405815) y1))))) 
(and (or (<= (+ x1 0.0911714768) x4) (or (<= (+ x4 0.4717337751) x1) (or (>= (- y1 0.8134874405) y4) (or (>= (- y4 0.554745903) y1))))) 
(and (or (<= (+ x1 0.0911714768) x5) (or (<= (+ x5 0.3482728906) x1) (or (>= (- y1 0.8134874405) y5) (or (>= (- y5 0.3828827221) y1))))) 
(and (or (<= (+ x1 0.0911714768) x6) (or (<= (+ x6 0.4296715769) x1) (or (>= (- y1 0.8134874405) y6) (or (>= (- y6 0.3677670044) y1))))) 
(and (or (<= (+ x1 0.0911714768) x7) (or (<= (+ x7 0.0564388434) x1) (or (>= (- y1 0.8134874405) y7) (or (>= (- y7 0.3643801729) y1))))) 
(and (or (<= (+ x1 0.0911714768) x8) (or (<= (+ x8 0.3924183036) x1) (or (>= (- y1 0.8134874405) y8) (or (>= (- y8 0.2641453916) y1))))) 
(and (or (<= (+ x1 0.0911714768) x9) (or (<= (+ x9 0.573858188) x1) (or (>= (- y1 0.8134874405) y9) (or (>= (- y9 0.1534121314) y1))))) 
(and (or (<= (+ x1 0.0911714768) x10) (or (<= (+ x10 0.348140032) x1) (or (>= (- y1 0.8134874405) y10) (or (>= (- y10 0.1091890444) y1))))) 
(and (or (<= (+ x1 0.0911714768) x11) (or (<= (+ x11 0.4966061613) x1) (or (>= (- y1 0.8134874405) y11) (or (>= (- y11 0.0338020348) y1))))) 
(and (or (<= (+ x2 0.1829961401) x3) (or (<= (+ x3 0.6987055435) x2) (or (>= (- y2 0.7227091456) y3) (or (>= (- y3 0.6907405815) y2))))) 
(and (or (<= (+ x2 0.1829961401) x4) (or (<= (+ x4 0.4717337751) x2) (or (>= (- y2 0.7227091456) y4) (or (>= (- y4 0.554745903) y2))))) 
(and (or (<= (+ x2 0.1829961401) x5) (or (<= (+ x5 0.3482728906) x2) (or (>= (- y2 0.7227091456) y5) (or (>= (- y5 0.3828827221) y2))))) 
(and (or (<= (+ x2 0.1829961401) x6) (or (<= (+ x6 0.4296715769) x2) (or (>= (- y2 0.7227091456) y6) (or (>= (- y6 0.3677670044) y2))))) 
(and (or (<= (+ x2 0.1829961401) x7) (or (<= (+ x7 0.0564388434) x2) (or (>= (- y2 0.7227091456) y7) (or (>= (- y7 0.3643801729) y2))))) 
(and (or (<= (+ x2 0.1829961401) x8) (or (<= (+ x8 0.3924183036) x2) (or (>= (- y2 0.7227091456) y8) (or (>= (- y8 0.2641453916) y2))))) 
(and (or (<= (+ x2 0.1829961401) x9) (or (<= (+ x9 0.573858188) x2) (or (>= (- y2 0.7227091456) y9) (or (>= (- y9 0.1534121314) y2))))) 
(and (or (<= (+ x2 0.1829961401) x10) (or (<= (+ x10 0.348140032) x2) (or (>= (- y2 0.7227091456) y10) (or (>= (- y10 0.1091890444) y2))))) 
(and (or (<= (+ x2 0.1829961401) x11) (or (<= (+ x11 0.4966061613) x2) (or (>= (- y2 0.7227091456) y11) (or (>= (- y11 0.0338020348) y2))))) 
(and (or (<= (+ x3 0.6987055435) x4) (or (<= (+ x4 0.4717337751) x3) (or (>= (- y3 0.6907405815) y4) (or (>= (- y4 0.554745903) y3))))) 
(and (or (<= (+ x3 0.6987055435) x5) (or (<= (+ x5 0.3482728906) x3) (or (>= (- y3 0.6907405815) y5) (or (>= (- y5 0.3828827221) y3))))) 
(and (or (<= (+ x3 0.6987055435) x6) (or (<= (+ x6 0.4296715769) x3) (or (>= (- y3 0.6907405815) y6) (or (>= (- y6 0.3677670044) y3))))) 
(and (or (<= (+ x3 0.6987055435) x7) (or (<= (+ x7 0.0564388434) x3) (or (>= (- y3 0.6907405815) y7) (or (>= (- y7 0.3643801729) y3))))) 
(and (or (<= (+ x3 0.6987055435) x8) (or (<= (+ x8 0.3924183036) x3) (or (>= (- y3 0.6907405815) y8) (or (>= (- y8 0.2641453916) y3))))) 
(and (or (<= (+ x3 0.6987055435) x9) (or (<= (+ x9 0.573858188) x3) (or (>= (- y3 0.6907405815) y9) (or (>= (- y9 0.1534121314) y3))))) 
(and (or (<= (+ x3 0.6987055435) x10) (or (<= (+ x10 0.348140032) x3) (or (>= (- y3 0.6907405815) y10) (or (>= (- y10 0.1091890444) y3))))) 
(and (or (<= (+ x3 0.6987055435) x11) (or (<= (+ x11 0.4966061613) x3) (or (>= (- y3 0.6907405815) y11) (or (>= (- y11 0.0338020348) y3))))) 
(and (or (<= (+ x4 0.4717337751) x5) (or (<= (+ x5 0.3482728906) x4) (or (>= (- y4 0.554745903) y5) (or (>= (- y5 0.3828827221) y4))))) 
(and (or (<= (+ x4 0.4717337751) x6) (or (<= (+ x6 0.4296715769) x4) (or (>= (- y4 0.554745903) y6) (or (>= (- y6 0.3677670044) y4))))) 
(and (or (<= (+ x4 0.4717337751) x7) (or (<= (+ x7 0.0564388434) x4) (or (>= (- y4 0.554745903) y7) (or (>= (- y7 0.3643801729) y4))))) 
(and (or (<= (+ x4 0.4717337751) x8) (or (<= (+ x8 0.3924183036) x4) (or (>= (- y4 0.554745903) y8) (or (>= (- y8 0.2641453916) y4))))) 
(and (or (<= (+ x4 0.4717337751) x9) (or (<= (+ x9 0.573858188) x4) (or (>= (- y4 0.554745903) y9) (or (>= (- y9 0.1534121314) y4))))) 
(and (or (<= (+ x4 0.4717337751) x10) (or (<= (+ x10 0.348140032) x4) (or (>= (- y4 0.554745903) y10) (or (>= (- y10 0.1091890444) y4))))) 
(and (or (<= (+ x4 0.4717337751) x11) (or (<= (+ x11 0.4966061613) x4) (or (>= (- y4 0.554745903) y11) (or (>= (- y11 0.0338020348) y4))))) 
(and (or (<= (+ x5 0.3482728906) x6) (or (<= (+ x6 0.4296715769) x5) (or (>= (- y5 0.3828827221) y6) (or (>= (- y6 0.3677670044) y5))))) 
(and (or (<= (+ x5 0.3482728906) x7) (or (<= (+ x7 0.0564388434) x5) (or (>= (- y5 0.3828827221) y7) (or (>= (- y7 0.3643801729) y5))))) 
(and (or (<= (+ x5 0.3482728906) x8) (or (<= (+ x8 0.3924183036) x5) (or (>= (- y5 0.3828827221) y8) (or (>= (- y8 0.2641453916) y5))))) 
(and (or (<= (+ x5 0.3482728906) x9) (or (<= (+ x9 0.573858188) x5) (or (>= (- y5 0.3828827221) y9) (or (>= (- y9 0.1534121314) y5))))) 
(and (or (<= (+ x5 0.3482728906) x10) (or (<= (+ x10 0.348140032) x5) (or (>= (- y5 0.3828827221) y10) (or (>= (- y10 0.1091890444) y5))))) 
(and (or (<= (+ x5 0.3482728906) x11) (or (<= (+ x11 0.4966061613) x5) (or (>= (- y5 0.3828827221) y11) (or (>= (- y11 0.0338020348) y5))))) 
(and (or (<= (+ x6 0.4296715769) x7) (or (<= (+ x7 0.0564388434) x6) (or (>= (- y6 0.3677670044) y7) (or (>= (- y7 0.3643801729) y6))))) 
(and (or (<= (+ x6 0.4296715769) x8) (or (<= (+ x8 0.3924183036) x6) (or (>= (- y6 0.3677670044) y8) (or (>= (- y8 0.2641453916) y6))))) 
(and (or (<= (+ x6 0.4296715769) x9) (or (<= (+ x9 0.573858188) x6) (or (>= (- y6 0.3677670044) y9) (or (>= (- y9 0.1534121314) y6))))) 
(and (or (<= (+ x6 0.4296715769) x10) (or (<= (+ x10 0.348140032) x6) (or (>= (- y6 0.3677670044) y10) (or (>= (- y10 0.1091890444) y6))))) 
(and (or (<= (+ x6 0.4296715769) x11) (or (<= (+ x11 0.4966061613) x6) (or (>= (- y6 0.3677670044) y11) (or (>= (- y11 0.0338020348) y6))))) 
(and (or (<= (+ x7 0.0564388434) x8) (or (<= (+ x8 0.3924183036) x7) (or (>= (- y7 0.3643801729) y8) (or (>= (- y8 0.2641453916) y7))))) 
(and (or (<= (+ x7 0.0564388434) x9) (or (<= (+ x9 0.573858188) x7) (or (>= (- y7 0.3643801729) y9) (or (>= (- y9 0.1534121314) y7))))) 
(and (or (<= (+ x7 0.0564388434) x10) (or (<= (+ x10 0.348140032) x7) (or (>= (- y7 0.3643801729) y10) (or (>= (- y10 0.1091890444) y7))))) 
(and (or (<= (+ x7 0.0564388434) x11) (or (<= (+ x11 0.4966061613) x7) (or (>= (- y7 0.3643801729) y11) (or (>= (- y11 0.0338020348) y7))))) 
(and (or (<= (+ x8 0.3924183036) x9) (or (<= (+ x9 0.573858188) x8) (or (>= (- y8 0.2641453916) y9) (or (>= (- y9 0.1534121314) y8))))) 
(and (or (<= (+ x8 0.3924183036) x10) (or (<= (+ x10 0.348140032) x8) (or (>= (- y8 0.2641453916) y10) (or (>= (- y10 0.1091890444) y8))))) 
(and (or (<= (+ x8 0.3924183036) x11) (or (<= (+ x11 0.4966061613) x8) (or (>= (- y8 0.2641453916) y11) (or (>= (- y11 0.0338020348) y8))))) 
(and (or (<= (+ x9 0.573858188) x10) (or (<= (+ x10 0.348140032) x9) (or (>= (- y9 0.1534121314) y10) (or (>= (- y10 0.1091890444) y9))))) 
(and (or (<= (+ x9 0.573858188) x11) (or (<= (+ x11 0.4966061613) x9) (or (>= (- y9 0.1534121314) y11) (or (>= (- y11 0.0338020348) y9))))) 
(and (or (<= (+ x10 0.348140032) x11) (or (<= (+ x11 0.4966061613) x10) (or (>= (- y10 0.1091890444) y11) (or (>= (- y11 0.0338020348) y10))))) )))))))))))))))))))))))))))))))))))))))))))))))))))))))))))))))))))))))))))))))))))))))))))))))))))))))))))))))))))))))))))))))))))))))))))))))))))))))))))
(minimize c)
(check-sat)
(get-objectives)
(exit)
